sat
(
  (define-fun C2_VM3 () Int
    0)
  (define-fun MemProv2 () Int
    3750)
  (define-fun C3_VM5 () Int
    0)
  (define-fun C1_VM3 () Int
    0)
  (define-fun PriceProv2 () Int
    116)
  (define-fun ProcProv4 () Int
    4)
  (define-fun MemProv5 () Int
    3750)
  (define-fun StorageProv5 () Int
    2000)
  (define-fun C2_VM1 () Int
    0)
  (define-fun C2_VM2 () Int
    1)
  (define-fun C5_VM2 () Int
    0)
  (define-fun VM1Type () Int
    341)
  (define-fun C5_VM3 () Int
    1)
  (define-fun C3_VM3 () Int
    0)
  (define-fun C5_VM4 () Int
    0)
  (define-fun MemProv1 () Int
    7500)
  (define-fun VM5Type () Int
    433)
  (define-fun MemProv3 () Int
    7500)
  (define-fun C4_VM1 () Int
    0)
  (define-fun C4_VM5 () Int
    1)
  (define-fun C5_VM5 () Int
    0)
  (define-fun C1_VM5 () Int
    0)
  (define-fun MemProv4 () Int
    7500)
  (define-fun C3_VM4 () Int
    0)
  (define-fun StorageProv3 () Int
    2000)
  (define-fun StorageProv4 () Int
    2000)
  (define-fun ProcProv1 () Int
    4)
  (define-fun C3_VM1 () Int
    1)
  (define-fun PriceProv3 () Int
    210)
  (define-fun ProcProv2 () Int
    2)
  (define-fun PriceProv1 () Int
    210)
  (define-fun ProcProv5 () Int
    2)
  (define-fun PriceProv4 () Int
    210)
  (define-fun C3_VM2 () Int
    0)
  (define-fun C4_VM2 () Int
    0)
  (define-fun VM2Type () Int
    433)
  (define-fun VM3Type () Int
    341)
  (define-fun C4_VM4 () Int
    0)
  (define-fun PriceProv5 () Int
    116)
  (define-fun C4_VM3 () Int
    0)
  (define-fun C2_VM5 () Int
    0)
  (define-fun StorageProv1 () Int
    2000)
  (define-fun StorageProv2 () Int
    2000)
  (define-fun ProcProv3 () Int
    4)
  (define-fun C2_VM4 () Int
    0)
  (define-fun C1_VM4 () Int
    1)
  (define-fun C1_VM2 () Int
    0)
  (define-fun VM4Type () Int
    341)
  (define-fun C5_VM1 () Int
    0)
  (define-fun C1_VM1 () Int
    0)
)
(objectives
 ((+ 0 PriceProv1 PriceProv2 PriceProv3 PriceProv4 PriceProv5) 862)
)
(:added-eqs                   821782
 :arith-eq-adapter            108401
 :arith-bound-propagations-lp 3328007
 :arith-conflicts             1221
 :arith-diseq                 3209471
 :arith-fixed-eqs             4544
 :arith-lower                 4600248
 :arith-make-feasible         133240
 :arith-max-columns           553
 :arith-max-rows              17
 :arith-upper                 1854573
 :binary-propagations         5918126
 :bv-bit2core                 59346
 :bv-dynamic-diseqs           2154870
 :bv-dynamic-eqs              2
 :bv->core-eq                 2459
 :conflicts                   12539
 :decisions                   696050
 :del-clause                  2233023
 :final-checks                149
 :max-memory                  93.56
 :memory                      84.18
 :minimized-lits              1291951
 :mk-bool-var                 225905
 :mk-clause                   2233358
 :mk-clause-binary            12102
 :num-allocs                  1990309372
 :num-checks                  115
 :pb-conflicts                81
 :pb-predicates               4
 :pb-propagations             1738
 :pb-resolves                 80
 :propagations                14691073
 :restarts                    103
 :rlimit-count                93986576
 :solve-eqs-elim-vars         2
 :solve-eqs-steps             16
 :time                        6.59
 :total-time                  6.62)
